NAME : cgl_81.6816.tour
COMMENT : Length = 6816
COMMENT : Found by LKH-3 [Keld Helsgaun] Fri Nov  8 17:38:22 2024
TYPE : TOUR
DIMENSION : 82
TOUR_SECTION
44
49
50
51
52
53
82
67
66
65
68
64
63
62
69
61
60
59
71
70
72
57
58
54
55
56
76
75
73
74
81
78
77
80
79
5
6
4
2
3
26
34
30
28
32
27
33
25
29
31
35
21
20
19
39
38
37
36
18
1
22
23
24
17
15
16
9
8
7
10
40
11
47
48
12
13
14
43
42
41
46
45
-1
EOF
